17	4	3
21	28	17	12	15	21	29	
0	0	0	0	0	9	7	2	4	8	7	3	2	3	4
7	3	10	7	0	4	7	5	8	6	5	3	11	15	17
2	4	0	0	0	1	8	9	2	4	10	3	8	10	12
4	0	0	0	4	2	7	10	3	5	5	3	5	6	7
7	4	8	0	0	3	7	3	6	6	10	1	10
225	0	8	1	3	4	5	7	5	8	4	2	17	17
150	2	0	7	7	2	1	1	6	9	6	2	9	17
75	0	9	2	2	10	9	3	9	1	6	2	17	17
125	4	9	0	0	9	2	3	8	4	7	1	13
225	0	0	10	1	3	7	4	6	2	9	1	17
225	8	7	0	0	6	5	3	2	10	1	2	12	13
150	0	9	7	0	6	1	1	6	7	10	2	14	16
1	0	0	1	0	2	7	9	4	6	9	1	17
1	0	0	0	1	10	4	1	2	1	4	2	17	17
4	0	2	3	4	8	4	1	1	9	2	2	17	17
3	4	0	0	0	9	4	7	2	6	7	1	17
0	0	0	0	0	2	1	7	3	7	4	0
